<number of tasks>
50

<cycle time>
1000

<order strength>
0.195


<task times>
1 621
2 733
3 622
4 564
5 640
6 513
7 464
8 535
9 491
10 420
11 551
12 536
13 350
14 525
15 397
16 409
17 348
18 439
19 540
20 411
21 560
22 707
23 517
24 282
25 379
26 707
27 647
28 518
29 630
30 463
31 727
32 649
33 443
34 441
35 604
36 424
37 612
38 413
39 609
40 664
41 483
42 559
43 291
44 505
45 276
46 340
47 330
48 566
49 392
50 518

<precedence relations>
1,30
2,10
2,11
4,9
4,16
5,8
5,15
6,12
6,14
7,13
8,30
9,30
10,18
11,17
11,19
11,20
12,29
13,22
15,44
16,21
17,30
18,24
19,25
20,26
21,27
21,29
22,23
22,28
23,30
24,31
25,31
26,32
27,34
28,37
29,33
29,35
29,36
30,38
30,39
30,40
30,41
30,42
31,43
31,44
35,45
41,48
43,47
44,46
46,49
47,50

<end>
